15
-1 635 234 645 531 758 398 509 653 390 274 330 210 920 476 
635 -1 570 522 499 123 238 210 399 700 442 645 560 462 489 
234 570 -1 764 660 688 348 525 730 599 388 532 392 954 608 
645 522 764 -1 115 578 504 335 136 390 382 388 442 389 169 
531 499 660 115 -1 576 430 292 185 292 273 280 326 472 55 
758 123 688 578 576 -1 361 308 445 804 558 753 677 425 576 
398 238 348 504 430 361 -1 193 427 536 252 471 357 612 395 
509 210 525 335 292 308 193 -1 239 496 264 445 383 429 278 
653 399 730 136 185 445 427 239 -1 476 379 456 469 290 221 
390 700 599 390 292 804 536 496 476 -1 284 69 211 765 257 
274 442 388 382 273 558 252 264 379 284 -1 218 120 649 220 
330 645 532 388 280 753 471 445 456 69 218 -1 142 747 235 
210 560 392 442 326 677 357 383 469 211 120 142 -1 751 272 
920 462 954 389 472 425 612 429 290 765 649 747 751 -1 511 
476 489 608 169 55 576 395 278 221 257 220 235 272 511 -1 
